; ./prepared/seahorn/./sv_comp_flat_small/ldv-linux-3.4-simple/32_1_cilled_true-unreach-call_ok_nondet_linux-3.4-32_1-drivers--media--common--tuners--mt2060.ko-ldv_main0_sequence_infinite_withcheck_stateful.cil.out.c.flat_000.smt2
(set-logic HORN)


(declare-fun |main_1| ( Int Int ) Bool)

(assert
  (forall ( (A Int) (v_1 Int) ) 
    (=>
      (and
        (and true (= 0 v_1))
      )
      (main_1 v_1 A)
    )
  )
)
(assert
  (forall ( (A Int) (B Int) (C Int) (D Int) (E Int) (F Int) (G Int) (H Int) (I Int) (J Int) (K Int) (L Int) (M Int) (N Int) (O Int) (P Int) (Q Int) (R Int) (S Int) (T Int) (U Int) (V Int) (W Int) (X Int) (Y Int) (Z Int) (A1 Int) (B1 Int) (C1 Int) (D1 Int) (E1 Int) (F1 Int) (G1 Int) (H1 Int) (I1 Int) (J1 Int) (K1 Int) (L1 Int) (M1 Int) (N1 Int) (O1 Int) (P1 Int) (Q1 Int) (R1 Int) (S1 Int) (T1 Int) (U1 Int) (V1 Int) (W1 Int) (X1 Int) (Y1 Int) (Z1 Int) (A2 Int) (B2 Int) (C2 Int) (D2 Int) (E2 Int) (F2 Int) (G2 Int) (H2 Int) (I2 Int) (J2 Int) (K2 Int) (L2 Int) (M2 Int) (N2 Int) (O2 Int) (P2 Int) (Q2 Int) (R2 Int) (S2 Int) (T2 Int) (U2 Int) (V2 Int) (W2 Int) (X2 Int) (Y2 Int) (Z2 Int) (A3 Int) (B3 Int) (C3 Int) (D3 Int) (E3 Int) (F3 Int) (G3 Int) (H3 Int) (I3 Int) (J3 Int) (K3 Int) (L3 Int) (M3 Int) (N3 Int) (O3 Int) (P3 Int) (Q3 Bool) (R3 Int) (S3 Bool) (T3 Int) (U3 Int) (V3 Int) (W3 Int) (X3 Int) (Y3 Int) (Z3 Int) (A4 Int) (B4 Int) (C4 Int) (D4 Int) (E4 Int) (F4 Bool) (G4 Bool) (H4 Bool) (I4 Bool) (v_113 Int) (v_114 Int) ) 
    (=>
      (and
        (main_1 v_113 R3)
        (and (= 0 v_113)
     (or (not Q3) (not G4) (not S3))
     (or (not H4) (and F4 I4))
     (or (not F4) (= J2 (+ 5 N1)))
     (or (not F4) (= O3 N3))
     (or (not F4) (= N3 (+ 768 M3)))
     (or (not F4) (= L3 T3))
     (or (not F4) (= K3 J3))
     (or (not F4) (= A3 Z2))
     (or (not F4) (= U2 T3))
     (or (not F4) (= T2 S2))
     (or (not F4) (= K1 B4))
     (or (not F4) (= I1 H1))
     (or (not F4) (= O Z3))
     (or (not F4) (= B (+ 768 A)))
     (or (not F4) (= M3 A4))
     (or (not F4) (= J3 (+ 24 W2)))
     (or (not F4) (= I3 H3))
     (or (not F4) (= H3 (+ 20 W2)))
     (or (not F4) (= G3 F3))
     (or (not F4) (= F3 (+ 18 W2)))
     (or (not F4) (= E3 D3))
     (or (not F4) (= D3 (+ 16 W2)))
     (or (not F4) (= C3 B3))
     (or (not F4) (= B3 (+ 8 W2)))
     (or (not F4) (= Z2 (+ 4 W2)))
     (or (not F4) (= Y2 X2))
     (or (not F4) (= X2 (+ 2 W2)))
     (or (not F4) (= W2 T3))
     (or (not F4) (= V2 T3))
     (or (not F4) (= S2 (+ 8 N2)))
     (or (not F4) (= R2 Q2))
     (or (not F4) (= Q2 (+ 4 N2)))
     (or (not F4) (= P2 O2))
     (or (not F4) (= O2 (+ 2 N2)))
     (or (not F4) (= N2 U3))
     (or (not F4) (= M2 U3))
     (or (not F4) (= L2 U3))
     (or (not F4) (= K2 J2))
     (or (not F4) (= I2 H2))
     (or (not F4) (= H2 (+ 4 N1)))
     (or (not F4) (= G2 F2))
     (or (not F4) (= F2 (+ 3 N1)))
     (or (not F4) (= E2 D2))
     (or (not F4) (= D2 (+ 2 N1)))
     (or (not F4) (= C2 B2))
     (or (not F4) (= B2 (+ 804 K1)))
     (or (not F4) (= A2 Z1))
     (or (not F4) (= Z1 (+ 8 U1)))
     (or (not F4) (= Y1 X1))
     (or (not F4) (= X1 (+ 4 U1)))
     (or (not F4) (= W1 V1))
     (or (not F4) (= V1 (+ 2 U1)))
     (or (not F4) (= U1 V3))
     (or (not F4) (= T1 V3))
     (or (not F4) (= S1 V3))
     (or (not F4) (= R1 Q1))
     (or (not F4) (= Q1 (+ 360 K1)))
     (or (not F4) (= P1 O1))
     (or (not F4) (= O1 (+ 1 N1)))
     (or (not F4) (= N1 W3))
     (or (not F4) (= M1 L1))
     (or (not F4) (= L1 (+ 768 K1)))
     (or (not F4) (= J1 W3))
     (or (not F4) (= H1 (+ 8 C1)))
     (or (not F4) (= G1 F1))
     (or (not F4) (= F1 (+ 4 C1)))
     (or (not F4) (= E1 D1))
     (or (not F4) (= D1 (+ 2 C1)))
     (or (not F4) (= C1 X3))
     (or (not F4) (= B1 X3))
     (or (not F4) (= A1 X3))
     (or (not F4) (= Z Y))
     (or (not F4) (= Y (+ 360 V)))
     (or (not F4) (= X W))
     (or (not F4) (= W (+ 768 V)))
     (or (not F4) (= V C4))
     (or (not F4) (= U T))
     (or (not F4) (= T (+ 8 O)))
     (or (not F4) (= S R))
     (or (not F4) (= R (+ 4 O)))
     (or (not F4) (= Q P))
     (or (not F4) (= P (+ 2 O)))
     (or (not F4) (= N Z3))
     (or (not F4) (= M L))
     (or (not F4) (= L (+ 1 K)))
     (or (not F4) (= K Y3))
     (or (not F4) (= J Z3))
     (or (not F4) (= I Y3))
     (or (not F4) (= H G))
     (or (not F4) (= G (+ 360 D)))
     (or (not F4) (= F E))
     (or (not F4) (= E (+ 768 D)))
     (or (not F4) (= D D4))
     (or (not F4) (= C B))
     (or (not F4) (= A E4))
     (or (not F4) (and S3 G4))
     (= H4 true)
     (= Q3 (= P3 0))
     (= 1 v_114))
      )
      (main_1 v_114 R3)
    )
  )
)
(assert
  (forall ( (A Int) (B Bool) (C Int) (D Bool) (E Bool) (F Bool) (G Bool) (H Bool) (v_8 Int) (v_9 Int) ) 
    (=>
      (and
        (main_1 v_8 C)
        (and (= 0 v_8)
     (or B (not D) (not F))
     (or (not G) (and E H))
     (or (not E) (and D F))
     (= G true)
     (not E)
     (= B (= A 0))
     (= 3 v_9))
      )
      (main_1 v_9 C)
    )
  )
)
(assert
  (forall ( (A Int) (B Bool) (C Bool) (D Int) (E Bool) (F Int) (G Int) (H Int) (I Int) (J Int) (K Int) (L Int) (M Int) (N Int) (O Int) (P Int) (Q Int) (R Int) (S Int) (T Bool) (U Int) (V Bool) (W Int) (X Bool) (Y Int) (Z Int) (A1 Int) (B1 Int) (C1 Int) (D1 Int) (E1 Int) (F1 Int) (G1 Int) (H1 Int) (I1 Int) (J1 Int) (K1 Int) (L1 Int) (M1 Bool) (N1 Int) (O1 Bool) (P1 Bool) (Q1 Bool) (R1 Int) (S1 Int) (T1 Int) (U1 Int) (V1 Bool) (W1 Bool) (X1 Bool) (Y1 Bool) (Z1 Int) (A2 Bool) (B2 Int) (C2 Bool) (D2 Bool) (E2 Bool) (F2 Bool) (G2 Bool) (H2 Bool) (I2 Bool) (J2 Bool) (K2 Bool) (L2 Bool) (M2 Bool) (N2 Bool) (O2 Bool) (P2 Bool) (Q2 Bool) (R2 Bool) (S2 Int) (T2 Bool) (U2 Bool) (V2 Bool) (W2 Bool) (X2 Bool) (Y2 Bool) (Z2 Bool) (A3 Bool) (B3 Bool) (C3 Bool) (D3 Bool) (E3 Bool) (F3 Bool) (G3 Bool) (H3 Int) (I3 Bool) (J3 Bool) (K3 Bool) (L3 Bool) (M3 Bool) (N3 Bool) (O3 Bool) (P3 Bool) (Q3 Bool) (R3 Bool) (S3 Bool) (T3 Bool) (U3 Bool) (V3 Bool) (W3 Bool) (X3 Bool) (Y3 Bool) (Z3 Bool) (A4 Bool) (B4 Bool) (C4 Bool) (D4 Bool) (E4 Bool) (F4 Bool) (G4 Bool) (H4 Bool) (I4 Bool) (J4 Bool) (v_114 Int) (v_115 Int) ) 
    (=>
      (and
        (main_1 v_114 Z1)
        (let ((a!1 (or (not M2) (not (= (<= 1 B2) Q1))))
      (a!2 (or (not E2) (not (= (<= 5 B2) W1))))
      (a!3 (or (not C2) (not (= (<= 4 B2) X1))))
      (a!4 (or (not O2) (not (= (<= 2 B2) P1)))))
  (and (= 1 v_114)
       (or (and K2 A4)
           (and S3 D4)
           (and P3 E4)
           (and W3 F4)
           (and U3 G4)
           (and B4 D3)
           (and Z3 I2)
           (and C4 A3)
           (and H4 G2)
           (not Y3))
       (or Y1 (not N2) (not A2))
       (or (not Y1) (not D2) (not A2))
       (or (not Q1) (not P2) (not M2))
       (or (not X1) (not C2) (not F2))
       (or W1 (not L2) (not E2))
       (or (not H2) (not W1) (not E2))
       (or (not K3) (and L3 I3) (and M3 F3))
       (or (not G3) (not O2) P1)
       (or (not V) (not F3) (not J3))
       (or (and V2 C3) (not A3) (and B3 Y2))
       (or (not E3) (not X) (not A3))
       (or (not X2) (not Q2) O1)
       (or (not R2) (not O2) (not P1))
       (or (not J2) V1 (not G2))
       (or (not V1) (not G2) (not H4))
       (or (not C4) (not A3) X)
       (or (not B) (not J4) (not Y3))
       (or Q1 (not V3) (not M2))
       (or (not R3) (not K3) T)
       (or (not P3) (and Q3 N3) (and R3 K3))
       (or E (not P3) (not E4))
       (or (not E) (not P3) (not T3))
       (or (not O3) (not K3) (not T))
       (or (not M3) (not F3) V)
       (or (not V2) (and W2 T2) (and X2 Q2))
       (or (not V2) M1 (not C3))
       (or (not V2) (not Z2) (not M1))
       (or (not U2) (not Q2) (not O1))
       (or (not C) (not U3) (not G4))
       (or C (not U3) (not X3))
       a!1
       (or (not M2) (and A2 N2))
       (or (not I2) (and J2 G2))
       (or (not G2) (= V1 (= B2 5)))
       (or (not G2) (and H2 E2))
       a!2
       (or (not E2) (and C2 F2))
       a!3
       (or (not C2) (and A2 D2))
       (or (not T2) (and U2 Q2))
       a!4
       (or (not O2) (and P2 M2))
       (or (not Y2) (and V2 Z2))
       (or (not Q2) (= O1 (= N1 0)))
       (or (not Q2) (and R2 O2))
       (or (not I4) (and Y3 J4))
       (or (not N3) (and O3 K3))
       (or (not K3) (= T (= S 1)))
       (or (not K3) (= P H3))
       (or (not K3) (= R Q))
       (or (not K3) (= Q (+ 8 P)))
       (or (not K3) (= O N))
       (or (not K3) (= M H3))
       (or (not K3) (= L (* 64 K)))
       (or (not K3) (= J I))
       (or (not K3) (= I (+ 1 H)))
       (or (not K3) (= H G))
       (or (not K3) (= F H3))
       (or (not I3) (and F3 J3))
       (or (not F3) (= V (= U 0)))
       (or (not F3) (and G3 O2))
       (or (not D3) (and A3 E3))
       (or (not A3) (= X (= W 0)))
       (or (not Y3) (= B (= A 0)))
       (or (not W3) (and U3 X3))
       (or (not U3) (= C (= B2 0)))
       (or (not U3) (and V3 M2))
       (or (not S3) (and P3 T3))
       (or (not P3) (= E (= D 0)))
       (or (not V2) (= M1 (= L1 1)))
       (or (not V2) (= J1 (+ 8 I1)))
       (or (not V2) (= K1 J1))
       (or (not V2) (= I1 S2))
       (or (not V2) (= H1 G1))
       (or (not V2) (= F1 S2))
       (or (not V2) (= E1 (* 64 D1)))
       (or (not V2) (= C1 B1))
       (or (not V2) (= B1 (+ 1 A1)))
       (or (not V2) (= A1 Z))
       (or (not V2) (= Y S2))
       (or (not K2) (= U1 T1))
       (or (not K2) (= T1 (+ 16 S1)))
       (or (not K2) (= S1 R1))
       (or (not K2) (and E2 L2))
       (= I4 true)
       (not (= (<= 3 B2) Y1))
       (= 1 v_115)))
      )
      (main_1 v_115 Z1)
    )
  )
)
(assert
  (forall ( (A Int) (B Int) (C Int) (D Int) (E Bool) (F Int) (G Int) (H Int) (I Int) (J Int) (K Int) (L Int) (M Int) (N Int) (O Int) (P Int) (Q Bool) (R Int) (S Bool) (T Int) (U Bool) (V Int) (W Int) (X Int) (Y Int) (Z Int) (A1 Int) (B1 Int) (C1 Int) (D1 Int) (E1 Int) (F1 Int) (G1 Int) (H1 Bool) (I1 Bool) (J1 Bool) (K1 Bool) (L1 Bool) (M1 Bool) (N1 Bool) (O1 Bool) (P1 Bool) (Q1 Bool) (R1 Int) (S1 Int) (T1 Int) (U1 Int) (V1 Int) (W1 Int) (X1 Int) (Y1 Int) (Z1 Int) (A2 Int) (B2 Int) (C2 Int) (D2 Int) (E2 Int) (F2 Int) (G2 Int) (H2 Bool) (I2 Int) (J2 Int) (K2 Int) (L2 Int) (M2 Int) (N2 Int) (O2 Int) (P2 Bool) (Q2 Int) (R2 Int) (S2 Int) (T2 Int) (U2 Bool) (V2 Bool) (W2 Bool) (X2 Int) (Y2 Bool) (Z2 Int) (A3 Bool) (B3 Bool) (C3 Bool) (D3 Bool) (E3 Int) (F3 Int) (G3 Int) (H3 Bool) (I3 Bool) (J3 Bool) (K3 Bool) (L3 Bool) (M3 Bool) (N3 Bool) (O3 Bool) (P3 Bool) (Q3 Bool) (R3 Int) (S3 Int) (T3 Int) (U3 Int) (V3 Bool) (W3 Bool) (X3 Bool) (Y3 Bool) (Z3 Bool) (A4 Bool) (B4 Bool) (C4 Bool) (D4 Bool) (E4 Bool) (F4 Bool) (G4 Bool) (H4 Bool) (I4 Bool) (J4 Bool) (K4 Bool) (L4 Bool) (M4 Bool) (N4 Int) (O4 Bool) (P4 Bool) (Q4 Bool) (R4 Bool) (S4 Bool) (T4 Bool) (U4 Bool) (V4 Bool) (W4 Bool) (X4 Bool) (Y4 Bool) (Z4 Int) (A5 Int) (B5 Int) (C5 Int) (D5 Int) (E5 Int) (F5 Int) (G5 Int) (H5 Int) (I5 Int) (J5 Bool) (K5 Bool) (L5 Bool) (M5 Bool) (N5 Bool) (O5 Bool) (P5 Bool) (Q5 Bool) (R5 Bool) (S5 Bool) (T5 Bool) (U5 Bool) (V5 Bool) (W5 Bool) (X5 Bool) (Y5 Bool) (Z5 Bool) (A6 Bool) (B6 Bool) (C6 Bool) (D6 Bool) (E6 Int) (v_161 Int) (v_162 Int) ) 
    (=>
      (and
        (main_1 v_161 X2)
        (let ((a!1 (or (not A3) (not (= (<= 4 Z2) V2))))
      (a!2 (or (not H4) (not (= (<= 645001000 R3) K1))))
      (a!3 (or (not D4) (not (= (<= 480001000 R3) M1))))
      (a!4 (or (not B4) (not (= (<= 425001000 R3) N1))))
      (a!5 (or (not Z3) (not (= (<= 335001000 R3) O1))))
      (a!6 (or (not V3) (not (= (<= 180001000 R3) Q1))))
      (a!7 (or (not X3) (not (= (<= 260001000 R3) P1))))
      (a!8 (or (not O3) (not (= (<= 95001000 R3) H2))))
      (a!9 (or (not O3) (= B2 (+ V1 (* (- 1) Z1)))))
      (a!10 (or (not O3) (= Z1 (+ X1 (* (- 1) Y1)))))
      (a!11 (or (not O3) (= W1 (+ V1 (* (- 1) R1)))))
      (a!12 (or (not O3) (= V1 (+ T1 (* (- 1) U1)))))
      (a!13 (or (not J4) (not (= (<= 730001000 R3) J1))))
      (a!14 (or (not L4) (not (= (<= 810001000 R3) I1))))
      (a!15 (or (not F4) (not (= (<= 570001000 R3) L1)))))
  (and (= 1 v_161)
       (or (and F4 S4)
           (and Q4 J4)
           (and R4 H4)
           (and T4 D4)
           (and U4 B4)
           (and V4 Z3)
           (and W4 X3)
           (and X4 V3)
           (and Y4 O3)
           (and P4 L4)
           (not O4))
       (or (and P5 S5) (and N5 T5) (and L5 U5) (and J5 V5) (and W5 O4) (not R5))
       (or (not Q1) (not Y3) (not V3))
       (or (and H3 K3) (not J3) (and C3 L3))
       (or (not J3) (not P2) (not N3))
       (or (not W2) (not B3) (not Y2))
       (or (not X3) (not P1) (not A4))
       (or (not K4) (not H4) (not K1))
       (or (not C4) (not Z3) (not O1))
       (or (not Q3) (not J3) P2)
       (or (not O3) (and Q3 J3) (and M3 P3))
       (or (not O3) (not H2) (not W3))
       (or (not C3) (not L3) U2)
       (or (not C3) (not U2) (not I3))
       (or (not T4) (not D4) (= I5 D5))
       (or (not T4) (not D4) (= D5 96))
       (or (not Y4) (not O3) (= I5 I2))
       (or (not Y4) (not O3) (= I2 176))
       (or (not Y4) (not O3) H2)
       (or (not X4) (not V3) (= H5 160))
       (or (not X4) (not V3) (= I5 H5))
       (or (not X4) (not V3) Q1)
       (or (not V4) (not Z3) (= I5 F5))
       (or (not V4) (not Z3) (= F5 128))
       (or (not V4) (not Z3) O1)
       (or (not U4) (not B4) (= I5 E5))
       (or (not U4) (not B4) (= E5 112))
       (or (not U4) (not B4) N1)
       (or (not R4) (not H4) (= I5 B5))
       (or (not R4) (not H4) (= B5 64))
       (or (not R4) (not H4) K1)
       (or (not M4) (not J4) (not J1))
       (or (not E4) (not B4) (not N1))
       (or V2 (not D3) (not A3))
       (or (not M1) (not G4) (not D4))
       (or M1 (not T4) (not D4))
       (or (and X5 A6) (and R5 B6) (not Z5))
       (or (= A E6) (not Z5) (not D6))
       (or (= E6 0) (not Z5) (not D6))
       (or (not W5) (not O4) H1)
       (or E (not R5) (not B6))
       (or (not E) (not Y5) (not R5))
       (or Q (not N5) (not T5))
       (or (not Q) (not Q5) (not N5))
       (or S (not L5) (not U5))
       (or (not S) (not L5) (not O5))
       (or (not K5) (not O4) (not H1))
       (or U (not J5) (not V5))
       (or (not U) (not J5) (not M5))
       (or (not W4) (not X3) (= G5 144))
       (or (not W4) (not X3) (= I5 G5))
       (or (not W4) (not X3) P1)
       (or (not Q4) (not J4) (= I5 A5))
       (or (not Q4) (not J4) (= A5 48))
       (or (not Q4) (not J4) J1)
       (or (not P4) (not L4) (= I5 Z4))
       (or (not P4) (not L4) (= Z4 N4))
       (or (not F4) (not L1) (not I4))
       (or (not F4) (not S4) (= I5 C5))
       (or (not F4) (not S4) (= C5 80))
       (or (not F4) (not S4) L1)
       a!1
       (or (not A3) (and Y2 B3))
       a!2
       (or (not H4) (and F4 I4))
       a!3
       (or (not D4) (and E4 B4))
       a!4
       (or (not B4) (and C4 Z3))
       a!5
       (or (not Z3) (and X3 A4))
       a!6
       (or (not V3) (and O3 W3))
       (or (not M3) (and J3 N3))
       (or (not J3) (= P2 (= O2 1)))
       (or (not J3) (= N2 M2))
       (or (not J3) (= M2 (+ 8 F3)))
       (or (not J3) (= L2 K2))
       (or (not J3) (= J2 E3))
       (or (not H3) (and C3 I3))
       a!7
       (or (not X3) (and V3 Y3))
       (or (not O4) (= H1 (= G1 0)))
       (or (not O4) (= F1 E1))
       (or (not O4) (= D1 (* 2 U3)))
       (or (not O4) (= C1 B1))
       (or (not O4) (= A1 Z))
       (or (not O4) (= Y (* 16 S3)))
       (or (not O4) (= X T3))
       (or (not O4) (= W V))
       a!8
       (or (not O3) (= X1 (+ (- 36125) W1)))
       (or (not O3) (= U3 (div F2 1024000)))
       (or (not O3) (= T3 (div T1 16000)))
       (or (not O3) (= S3 (div T1 250)))
       (or (not O3) (= G2 (div F2 125)))
       (or (not O3) (= F2 (* 64 Z1)))
       (or (not O3) (= E2 A2))
       (or (not O3) (= D2 (+ (- 36150000) C2)))
       (or (not O3) (= C2 (* 1000 B2)))
       a!9
       (or (not O3) (= A2 (+ 16 F3)))
       a!10
       (or (not O3) (= Y1 (mod X1 50)))
       a!11
       a!12
       (or (not O3) (= U1 (mod T1 250)))
       (or (not O3) (= T1 (+ R1 S1)))
       (or (not O3) (= S1 (* 1000 G3)))
       (or (not O3) (= R1 (div R3 1000)))
       (or (not C3) (= U2 (= T2 0)))
       (or (not C3) (= G3 S2))
       (or (not C3) (= F3 E3))
       (or (not C3) (= R2 Q2))
       (or (not C3) (= Q2 (+ 20 F3)))
       (or (not C3) (and A3 D3))
       a!13
       (or (not J4) (and K4 H4))
       a!14
       (or (not L4) (= N4 (ite I1 32 16)))
       (or (not L4) (and M4 J4))
       (or (not C6) (and Z5 D6))
       (or (not X5) (and R5 Y5))
       (or (not R5) (= E (= D 1)))
       (or (not R5) (= C B))
       (or (not P5) (= O N))
       (or (not P5) (= M L))
       (or (not P5) (= K J))
       (or (not P5) (= I H))
       (or (not P5) (= G F))
       (or (not P5) (and N5 Q5))
       (or (not N5) (= Q (= P 0)))
       (or (not N5) (and L5 O5))
       (or (not L5) (= S (= R 0)))
       (or (not L5) (and J5 M5))
       (or (not J5) (= U (= T 0)))
       (or (not J5) (and K5 O4))
       a!15
       (or (not F4) (and D4 G4))
       (= C6 true)
       (not (= (<= 3 Z2) W2))
       (= 2 v_162)))
      )
      (main_1 v_162 A)
    )
  )
)
(assert
  (forall ( (A Int) (B Bool) (C Bool) (D Int) (E Bool) (F Int) (G Int) (H Int) (I Int) (J Int) (K Int) (L Int) (M Int) (N Int) (O Int) (P Int) (Q Int) (R Int) (S Int) (T Bool) (U Int) (V Bool) (W Int) (X Bool) (Y Int) (Z Int) (A1 Int) (B1 Int) (C1 Int) (D1 Int) (E1 Int) (F1 Int) (G1 Int) (H1 Int) (I1 Int) (J1 Int) (K1 Int) (L1 Int) (M1 Bool) (N1 Int) (O1 Bool) (P1 Bool) (Q1 Bool) (R1 Int) (S1 Int) (T1 Int) (U1 Int) (V1 Bool) (W1 Bool) (X1 Bool) (Y1 Bool) (Z1 Int) (A2 Bool) (B2 Bool) (C2 Bool) (D2 Bool) (E2 Int) (F2 Bool) (G2 Bool) (H2 Bool) (I2 Bool) (J2 Bool) (K2 Bool) (L2 Bool) (M2 Bool) (N2 Bool) (O2 Bool) (P2 Bool) (Q2 Bool) (R2 Bool) (S2 Bool) (T2 Bool) (U2 Bool) (V2 Int) (W2 Bool) (X2 Bool) (Y2 Bool) (Z2 Bool) (A3 Bool) (B3 Bool) (C3 Bool) (D3 Bool) (E3 Bool) (F3 Bool) (G3 Bool) (H3 Bool) (I3 Bool) (J3 Bool) (K3 Int) (L3 Bool) (M3 Bool) (N3 Bool) (O3 Bool) (P3 Bool) (Q3 Bool) (R3 Bool) (S3 Bool) (T3 Bool) (U3 Bool) (V3 Bool) (W3 Bool) (X3 Bool) (Y3 Bool) (Z3 Bool) (A4 Bool) (B4 Bool) (C4 Bool) (D4 Bool) (E4 Bool) (F4 Bool) (G4 Bool) (H4 Bool) (I4 Bool) (J4 Bool) (K4 Bool) (L4 Bool) (M4 Bool) (N4 Bool) (v_118 Int) (v_119 Int) ) 
    (=>
      (and
        (main_1 v_118 Z1)
        (let ((a!1 (or (not R2) (not (= (<= 2 E2) P1))))
      (a!2 (or (not P2) (not (= (<= 1 E2) Q1))))
      (a!3 (or (not H2) (not (= (<= 5 E2) W1))))
      (a!4 (or (not F2) (not (= (<= 4 E2) X1)))))
  (and (= 1 v_118)
       (or (and V3 G4)
           (and S3 H4)
           (and Z3 I4)
           (and X3 J4)
           (not B4)
           (and K4 J2)
           (and F4 D3)
           (and C4 L2)
           (and D4 N2)
           (and E4 G3))
       (or (not W1) (not H2) (not K2))
       (or V1 (not J2) (not M2))
       (or (not O1) (not T2) (not X2))
       (or (not A2) Y1 (not Q2))
       (or (not A2) (not G2) (not Y1))
       (or (not X1) (not F2) (not I2))
       (or (not S2) (not Q1) (not P2))
       (or (not N3) (and P3 I3) (and L3 O3))
       (or (not I3) (not M3) (not V))
       (or (not D3) (and B3 E3) (and Y2 F3))
       (or (not H3) (not D3) (not X))
       (or (not A3) (not T2) O1)
       (or (not V1) (not J2) (not K4))
       (or (not F4) (not D3) X)
       (or B (not B4) (not M4))
       (or Q1 (not Y3) (not P2))
       (or (not C) (not J4) (not X3))
       (or C (not A4) (not X3))
       (or (not S3) (and Q3 T3) (and U3 N3))
       (or (not S3) E (not H4))
       (or (not S3) (not E) (not W3))
       (or (not P3) (not I3) V)
       (or (not Y2) (and A3 T2) (and Z2 W2))
       (or (not Y2) (not C3) (not M1))
       (or (not Y2) (not F3) M1)
       (or (not O2) W1 (not H2))
       (or (not P1) (not R2) (not U2))
       (or P1 (not J3) (not R2))
       (or (not R3) (not T) (not N3))
       (or T (not U3) (not N3))
       (or (not C2) (and D2 B2))
       a!1
       (or (not R2) (and S2 P2))
       a!2
       (or (not P2) (and A2 Q2))
       (or (not J2) (= V1 (= E2 5)))
       (or (not J2) (and H2 K2))
       a!3
       (or (not H2) (and F2 I2))
       a!4
       (or (not F2) (and A2 G2))
       (or (not T2) (= O1 (= N1 0)))
       (or (not T2) (and U2 R2))
       (or (not L2) (and J2 M2))
       (or (not B2) (and L4 N4))
       (or (not W2) (and T2 X2))
       (or (not N3) (= T (= S 1)))
       (or (not N3) (= R Q))
       (or (not N3) (= Q (+ 8 P)))
       (or (not N3) (= P K3))
       (or (not N3) (= O N))
       (or (not N3) (= M K3))
       (or (not N3) (= L (* 64 K)))
       (or (not N3) (= J I))
       (or (not N3) (= I (+ 1 H)))
       (or (not N3) (= H G))
       (or (not N3) (= F K3))
       (or (not L3) (and I3 M3))
       (or (not I3) (= V (= U 0)))
       (or (not I3) (and J3 R2))
       (or (not G3) (and D3 H3))
       (or (not D3) (= X (= W 0)))
       (or (not B3) (and Y2 C3))
       (or (not N2) (= U1 T1))
       (or (not N2) (= T1 (+ 16 S1)))
       (or (not N2) (= S1 R1))
       (or (not N2) (and O2 H2))
       (or (not L4) (and B4 M4))
       (or (not B4) (= B (= A 0)))
       (or (not Z3) (and X3 A4))
       (or (not X3) (= C (= E2 0)))
       (or (not X3) (and Y3 P2))
       (or (not V3) (and S3 W3))
       (or (not S3) (= E (= D 0)))
       (or (not Q3) (and N3 R3))
       (or (not Y2) (= M1 (= L1 1)))
       (or (not Y2) (= K1 J1))
       (or (not Y2) (= J1 (+ 8 I1)))
       (or (not Y2) (= I1 V2))
       (or (not Y2) (= H1 G1))
       (or (not Y2) (= F1 V2))
       (or (not Y2) (= E1 (* 64 D1)))
       (or (not Y2) (= C1 B1))
       (or (not Y2) (= B1 (+ 1 A1)))
       (or (not Y2) (= A1 Z))
       (or (not Y2) (= Y V2))
       (= C2 true)
       (not B2)
       (not (= (<= 3 E2) Y1))
       (= 3 v_119)))
      )
      (main_1 v_119 Z1)
    )
  )
)
(assert
  (forall ( (A Int) (B Bool) (C Int) (D Bool) (E Bool) (F Int) (G Bool) (H Int) (I Int) (J Int) (K Int) (L Int) (M Bool) (N Int) (O Bool) (P Bool) (Q Bool) (R Bool) (S Bool) (T Bool) (U Bool) (V Bool) (W Bool) (X Bool) (Y Int) (Z Bool) (A1 Bool) (B1 Bool) (C1 Bool) (D1 Bool) (E1 Bool) (F1 Bool) (G1 Bool) (H1 Bool) (I1 Bool) (v_35 Int) (v_36 Int) ) 
    (=>
      (and
        (main_1 v_35 N)
        (let ((a!1 (or (not W) (not (= (<= 10 Y) E)))))
  (and (= 2 v_35)
       (= K J)
       (= I H)
       (or (and C1 F1) (and Z G1) (not E1))
       (or (and W A1) (and T B1) (not Z))
       (or D (not Z) (not G1))
       (or (not D) (not Z) (not D1))
       (or (not E) (not A1) (not W))
       (or (and R U) (not T) (and Q V))
       (or G (not T) (not B1))
       (or (not T) (not G) (not X))
       (or M (not Q) (not V))
       (or (not M) (not Q) (not S))
       (or (not P) (not B) (not I1))
       (or (not C1) (and Z D1))
       (or (not Z) (= D (= C 0)))
       a!1
       (or (not W) (= Y (+ 1 N)))
       (or (not W) (and T X))
       (or (not T) (= G (= F (- 120))))
       (or (not R) (and Q S))
       (or (not P) (= B (= A 0)))
       (or (not P) (and E1 H1))
       (or (not O) (and P I1))
       (= O true)
       (= M (= L 2))
       (= 1 v_36)))
      )
      (main_1 v_36 N)
    )
  )
)
(assert
  (forall ( (A Bool) (B Int) (C Bool) (D Int) (E Int) (F Int) (G Int) (H Int) (I Bool) (J Int) (K Int) (L Bool) (M Int) (N Bool) (O Bool) (P Bool) (Q Bool) (R Bool) (S Bool) (T Bool) (U Int) (V Bool) (W Bool) (v_23 Int) (v_24 Int) ) 
    (=>
      (and
        (main_1 v_23 K)
        (let ((a!1 (or (not S) (not (= (<= 10 U) A)))))
  (and (= 2 v_23)
       (= G F)
       (= E D)
       (or (= M U) (not W) (not S))
       (or (= J M) (not W) (not S))
       (or A (not W) (not S))
       (or (and N Q) (and L R) (not P))
       (or I (not R) (not L))
       (or (not I) (not O) (not L))
       (or (not C) (not P) (not T))
       (or (not V) (and S W))
       a!1
       (or (not S) (= U (+ 1 K)))
       (or (not S) (and P T))
       (or (not P) (= C (= B (- 120))))
       (or (not N) (and L O))
       (= V true)
       (= I (= H 2))
       (= 2 v_24)))
      )
      (main_1 v_24 J)
    )
  )
)
(assert
  (forall ( (A Int) (B Bool) (C Int) (D Bool) (E Bool) (F Int) (G Bool) (H Int) (I Int) (J Int) (K Int) (L Int) (M Bool) (N Int) (O Bool) (P Bool) (Q Bool) (R Bool) (S Bool) (T Bool) (U Bool) (V Bool) (W Bool) (X Bool) (Y Bool) (Z Bool) (A1 Bool) (B1 Bool) (C1 Bool) (D1 Int) (E1 Bool) (F1 Bool) (G1 Bool) (H1 Bool) (I1 Bool) (J1 Bool) (K1 Bool) (L1 Bool) (M1 Bool) (v_39 Int) (v_40 Int) ) 
    (=>
      (and
        (main_1 v_39 N)
        (let ((a!1 (or (not B1) (not (= (<= 10 D1) E)))))
  (and (= 2 v_39)
       (= K J)
       (= I H)
       (or (and H1 K1) (and E1 L1) (not J1))
       (or (and B1 F1) (and Y G1) (not E1))
       (or D (not E1) (not L1))
       (or (not D) (not E1) (not I1))
       (or (and W Z) (and S A1) (not Y))
       (or G (not Y) (not G1))
       (or (not G) (not Y) (not C1))
       (or M (not S) (not A1))
       (or (not X) (not S) (not M))
       (or B (not R) (not U))
       (or (not E) (not F1) (not B1))
       (or (not H1) (and E1 I1))
       (or (not E1) (= D (= C 0)))
       a!1
       (or (not B1) (= D1 (+ 1 N)))
       (or (not B1) (and Y C1))
       (or (not Y) (= G (= F (- 120))))
       (or (not W) (and S X))
       (or (not T) (and R U))
       (or (not R) (= B (= A 0)))
       (or (not R) (and J1 M1))
       (or (not P) (and O Q))
       (or (not O) (and T V))
       (= P true)
       (not O)
       (= M (= L 2))
       (= 3 v_40)))
      )
      (main_1 v_40 N)
    )
  )
)
(assert
  (forall ( (A Int) (v_1 Int) ) 
    (=>
      (and
        (main_1 v_1 A)
        (= 3 v_1)
      )
      false
    )
  )
)

(check-sat)
(exit)
